p edge 25 60
e 1 10
e 1 11
e 1 14
e 1 21
e 1 22
e 2 13
e 2 15
e 2 21
e 3 5
e 3 9
e 3 10
e 3 11
e 3 16
e 3 19
e 4 6
e 4 9
e 4 10
e 4 15
e 4 16
e 4 22
e 5 8
e 5 16
e 5 22
e 6 10
e 6 16
e 6 24
e 7 8
e 7 14
e 7 18
e 7 19
e 7 24
e 8 12
e 8 15
e 8 19
e 8 24
e 9 10
e 9 11
e 9 16
e 9 20
e 10 18
e 10 19
e 11 12
e 11 18
e 11 21
e 12 23
e 13 15
e 14 17
e 14 21
e 16 20
e 16 21
e 17 20
e 17 23
e 18 21
e 18 22
e 19 21
e 20 21
e 21 22
e 21 24
e 21 25
e 22 25
